row=6;
Board=[|0,2,0,9,4,0,0,7,3,8|0,0,0,0,5,2,3,8,9,1|0,3,0,6,0,1,0,7,2,0|4,0,0,7,0,2,10,0,1,0|0,0,4,0,0,1,0,0,10,5|0,0,3,1,9,0,0,4,0,0|];
bottom=[97200,10080,24000,15876,27000,168,5760,28224,4320,1920]